NAME : mEgtspf.pid8441.gtsp.161061351.tour
COMMENT : Length = 161061351
COMMENT : Found by LKH [Keld Helsgaun] Wed Apr  2 15:22:31 2025
TYPE : TOUR
DIMENSION : 60
TOUR_SECTION
1
18
20
41
42
43
44
15
47
48
45
46
14
36
33
34
35
19
32
29
30
31
53
54
55
56
7
5
10
27
28
25
26
23
24
21
22
13
11
8
12
4
58
59
60
57
3
49
50
51
52
16
9
6
39
40
37
38
17
2
-1
EOF
